Minimize
  - 12 y_0 - 7 y_1 - 12 y_2 - 11 y_3 - 10 y_4 - 4 y_5 - 13 y_7 - 16 y_8
   - 13 y_9 + 26 x_0_1 + 31 x_0_3 + 47 x_0_4 + 48 x_0_6 + 61 x_0_7
   + 50 x_1_4 + 23 x_1_5 + 29 x_1_6 + 47 x_2_3 + 44 x_2_5 + 50 x_2_6
   + 75 x_2_8 + 3 x_2_9 + 21 x_3_4 + 56 x_3_5 + 46 x_3_6 + 32 x_3_7
   + 39 x_4_6 + 27 x_4_8 + 63 x_4_9 + 79 x_5_8 + 50 x_6_7 + 23 x_7_8
   + 23 x_7_8 + 23 x_7_8 + 23 x_7_8 + 23 x_7_8 + 23 x_7_8 + 23 x_7_8
   + 23 x_7_8 + 23 x_7_8 + 23 x_7_8 + 23 x_7_8 + 23 x_7_8 + 23 x_7_8
   + 23 x_7_8 + 23 x_7_8 + 23 x_7_8 + 23 x_7_8 + 23 x_7_8 + 23 x_7_8
   + 23 x_7_8 + 23 x_7_8 + 23 x_7_8 + 23 x_7_8 + 23 x_7_8 + 23 x_7_8
   + 23 x_7_8 + 23 x_7_8 + 23 x_7_8 + 23 x_7_8 + 23 x_7_8 + 23 x_7_8
   + 23 x_7_8 + 23 x_7_8 + 23 x_7_8 + 23 x_7_8 + 23 x_7_8 + 23 x_7_8
   + 23 x_7_8 + 23 x_7_8 + 23 x_7_8 + 23 x_7_8 + 23 x_7_8 + 23 x_7_8
   + 23 x_7_8 + 23 x_7_8 + 23 x_7_8 + 23 x_7_8 + 23 x_7_8 + 23 x_7_8
   + 23 x_7_8 + 23 x_7_8 + 23 x_7_8 + 23 x_7_8 + 23 x_7_8 + 23 x_7_8
   + 23 x_7_8 + 23 x_7_8 + 23 x_7_8 + 23 x_7_8 + 23 x_7_8 + 23 x_7_8
   + 23 x_7_8 + 23 x_7_8 + 23 x_7_8 + 23 x_7_8 + 23 x_7_8 + 23 x_7_8
   + 23 x_7_8 + 23 x_7_8 + 23 x_7_8 + 23 x_7_8 + 23 x_7_8 + 23 x_7_8
   + 23 x_7_8 + 23 x_7_8 + 23 x_7_8 + 23 x_7_8 + 23 x_7_8 + 23 x_7_8
   + 23 x_7_8 + 23 x_7_8 + 23 x_7_8 + 23 x_7_8 + 23 x_7_8 + 23 x_7_8
   + 23 x_7_8 + 23 x_7_8 + 23 x_7_8 + 23 x_7_8 + 23 x_7_8 + 23 x_7_8
   + 23 x_7_8 + 23 x_7_8 + 23 x_7_8 + 23 x_7_8 + 23 x_7_8 + 23 x_7_8
   + 23 x_7_8 + 23 x_7_8 + 23 x_7_8 + 23 x_7_8 + 23 x_7_8 + 23 x_7_8
   + 23 x_7_8 + 23 x_7_8 + 23 x_7_8 + 23 x_7_8 + 23 x_7_8 + 23 x_7_8
   + 23 x_7_8 + 23 x_7_8 + 23 x_7_8 + 23 x_7_8 + 23 x_7_8 + 23 x_7_8
   + 23 x_7_8 + 23 x_7_8 + 23 x_7_8 + 23 x_7_8 + 23 x_7_8 + 23 x_7_8
   + 23 x_7_8 + 23 x_7_8 + 23 x_7_8 + 23 x_7_8 + 23 x_7_8 + 23 x_7_8
   + 23 x_7_8 + 23 x_7_8 + 23 x_7_8 + 23 x_7_8 + 23 x_7_8 + 23 x_7_8
   + 23 x_7_8 + 23 x_7_8 + 23 x_7_8 + 23 x_7_8 + 23 x_7_8 + 23 x_7_8
   + 23 x_7_8 + 23 x_7_8 + 23 x_7_8 + 23 x_7_8 + 23 x_7_8 + 23 x_7_8
   + 23 x_7_8 + 23 x_7_8 + 23 x_7_8 + 23 x_7_8 + 23 x_7_8 + 23 x_7_8
   + 23 x_7_8 + 23 x_7_8 + 23 x_7_8 + 23 x_7_8 + 23 x_7_8 + 23 x_7_8
   + 23 x_7_8 + 23 x_7_8 + 23 x_7_8 + 23 x_7_8 + 23 x_7_8 + 23 x_7_8
   + 23 x_7_8 + 23 x_7_8 + 23 x_7_8 + 23 x_7_8 + 23 x_7_8 + 23 x_7_8
   + 23 x_7_8 + 23 x_7_8 + 23 x_7_8 + 23 x_7_8 + 23 x_7_8 + 23 x_7_8
   + 23 x_7_8 + 23 x_7_8 + 23 x_7_8 + 23 x_7_8 + 23 x_7_8 + 23 x_7_8
   + 23 x_7_8 + 23 x_7_8 + 23 x_7_8 + 23 x_7_8 + 23 x_7_8 + 23 x_7_8
   + 23 x_7_8 + 23 x_7_8 + 23 x_7_8 + 23 x_7_8 + 23 x_7_8 + 23 x_7_8
   + 23 x_7_8 + 23 x_7_8 + 23 x_7_8 + 23 x_7_8 + 23 x_7_8 + 23 x_7_8
   + 23 x_7_8 + 23 x_7_8 + 23 x_7_8 + 23 x_7_8 + 23 x_7_8 + 23 x_7_8
   + 23 x_7_8 + 23 x_7_8 + 23 x_7_8 + 23 x_7_8 + 23 x_7_8 + 23 x_7_8
   + 23 x_7_8 + 23 x_7_8 + 23 x_7_8 + 23 x_7_8 + 23 x_7_8 + 98 Constant
Subject To
 c_0: y_0 = 1
 c_1_0: y_0 >= 1
 c_1_1: y_1 >= 1
 c_1_2: y_2 + y_9 >= 1
 c_1_3: y_3 >= 1
 c_1_4: y_4 >= 1
 c_1_5: y_5 >= 1
 c_1_6: y_6 >= 1
 c_1_7: y_7 >= 1
 c_1_8: y_8 >= 1
 c_1_9: y_2 + y_9 >= 1
 c_2_0: - 2 y_0 + x_0_1 + x_0_3 + x_0_4 + x_0_6 + x_0_7 = 0
 c_2_1: - 2 y_1 + x_0_1 + x_1_4 + x_1_5 + x_1_6 = 0
 c_2_2: - 2 y_2 + x_2_3 + x_2_5 + x_2_6 + x_2_8 + x_2_9 = 0
 c_2_3: - 2 y_3 + x_0_3 + x_2_3 + x_3_4 + x_3_5 + x_3_6 + x_3_7 = 0
 c_2_4: - 2 y_4 + x_0_4 + x_1_4 + x_3_4 + x_4_6 + x_4_8 + x_4_9 = 0
 c_2_5: - 2 y_5 + x_1_5 + x_2_5 + x_3_5 + x_5_8 = 0
 c_2_6: - 2 y_6 + x_0_6 + x_1_6 + x_2_6 + x_3_6 + x_4_6 + x_6_7 = 0
 c_2_7: - 2 y_7 + x_0_7 + x_3_7 + x_6_7 + 216 x_7_8 = 0
 c_2_8: - 2 y_8 + x_2_8 + x_4_8 + x_5_8 + 216 x_7_8 = 0
 c_2_9: - 2 y_9 + x_2_9 + x_4_9 = 0
Bounds
 Constant = 1
Binaries
 y_0 y_1 y_2 y_3 y_4 y_5 y_6 y_7 y_8 y_9 x_0_1 x_0_3 x_0_4 x_0_6 x_0_7
 x_1_4 x_1_5 x_1_6 x_2_3 x_2_5 x_2_6 x_2_8 x_2_9 x_3_4 x_3_5 x_3_6 x_3_7
 x_4_6 x_4_8 x_4_9 x_5_8 x_6_7 x_7_8 x_7_8 x_7_8 x_7_8 x_7_8 x_7_8 x_7_8
 x_7_8 x_7_8 x_7_8 x_7_8 x_7_8 x_7_8 x_7_8 x_7_8 x_7_8 x_7_8 x_7_8 x_7_8
 x_7_8 x_7_8 x_7_8 x_7_8 x_7_8 x_7_8 x_7_8 x_7_8 x_7_8 x_7_8 x_7_8 x_7_8
 x_7_8 x_7_8 x_7_8 x_7_8 x_7_8 x_7_8 x_7_8 x_7_8 x_7_8 x_7_8 x_7_8 x_7_8
 x_7_8 x_7_8 x_7_8 x_7_8 x_7_8 x_7_8 x_7_8 x_7_8 x_7_8 x_7_8 x_7_8 x_7_8
 x_7_8 x_7_8 x_7_8 x_7_8 x_7_8 x_7_8 x_7_8 x_7_8 x_7_8 x_7_8 x_7_8 x_7_8
 x_7_8 x_7_8 x_7_8 x_7_8 x_7_8 x_7_8 x_7_8 x_7_8 x_7_8 x_7_8 x_7_8 x_7_8
 x_7_8 x_7_8 x_7_8 x_7_8 x_7_8 x_7_8 x_7_8 x_7_8 x_7_8 x_7_8 x_7_8 x_7_8
 x_7_8 x_7_8 x_7_8 x_7_8 x_7_8 x_7_8 x_7_8 x_7_8 x_7_8 x_7_8 x_7_8 x_7_8
 x_7_8 x_7_8 x_7_8 x_7_8 x_7_8 x_7_8 x_7_8 x_7_8 x_7_8 x_7_8 x_7_8 x_7_8
 x_7_8 x_7_8 x_7_8 x_7_8 x_7_8 x_7_8 x_7_8 x_7_8 x_7_8 x_7_8 x_7_8 x_7_8
 x_7_8 x_7_8 x_7_8 x_7_8 x_7_8 x_7_8 x_7_8 x_7_8 x_7_8 x_7_8 x_7_8 x_7_8
 x_7_8 x_7_8 x_7_8 x_7_8 x_7_8 x_7_8 x_7_8 x_7_8 x_7_8 x_7_8 x_7_8 x_7_8
 x_7_8 x_7_8 x_7_8 x_7_8 x_7_8 x_7_8 x_7_8 x_7_8 x_7_8 x_7_8 x_7_8 x_7_8
 x_7_8 x_7_8 x_7_8 x_7_8 x_7_8 x_7_8 x_7_8 x_7_8 x_7_8 x_7_8 x_7_8 x_7_8
 x_7_8 x_7_8 x_7_8 x_7_8 x_7_8 x_7_8 x_7_8 x_7_8 x_7_8 x_7_8 x_7_8 x_7_8
 x_7_8 x_7_8 x_7_8 x_7_8 x_7_8 x_7_8 x_7_8 x_7_8 x_7_8 x_7_8 x_7_8 x_7_8
 x_7_8 x_7_8 x_7_8 x_7_8 x_7_8 x_7_8 x_7_8 x_7_8 x_7_8 x_7_8 x_7_8 x_7_8
 x_7_8 x_7_8 x_7_8 x_7_8 x_7_8
End
